NAME: tsp35_15
COMMENT: 35-tsp problem (Padberg/Rinaldi)
TYPE: TSP
DIMENSION: 35
EDGE_WEIGHT_TYPE : EUC_2D
NODE_COORD_SECTION
1 33 39
2 20 17
3 29 23
4 18 3
5 35 33
6 26 20
7 6 18
8 33 16
9 34 17
10 23 30
11 34 16
12 28 26
13 26 12
14 4 31
15 1 20
16 34 20
17 15 2
18 4 5
19 15 10
20 35 12
21 16 39
22 31 15
23 13 13
24 31 20
25 26 26
26 18 37
27 2 33
28 25 30
29 16 33
30 12 12
31 34 8
32 26 19
33 25 30
34 20 38
35 30 5
